language Essence 1.3

letting bot_end be [64, 217, 289, 27, 54, 252, 24, 279, 3, 29, 37, 65, 273, 256; int(1..14)]
letting bot_start be [191, 117, 165, 235, 260, 80, 195, 8, 197, 169, 164, 224, 102, 60; int(1..14)]
letting buffer_col be 2
letting buffer_row be 2
letting corridor_size be 1
letting n_shelves_col be 1
letting n_shelves_row be 20
letting shelf_col_size be 2
letting shelf_row_size be 1
